NAME: random-72-10130
TYPE: TSP
COMMENT: size=72 seed=10130
DIMENSION: 146
EDGE_WEIGHT_TYPE: EUC_2D
NODE_COORD_SECTION
+0 910 566
-0 910 566
+1 688 314
-1 748 368
+2 983 374
-2 252 583
+3 161 10
-3 283 235
+4 204 951
-4 252 541
+5 227 791
-5 168 435
+6 363 251
-6 513 412
+7 622 909
-7 623 893
+8 834 150
-8 268 15
+9 294 56
-9 37 830
+10 916 769
-10 50 423
+11 497 658
-11 134 416
+12 206 670
-12 822 57
+13 64 472
-13 407 858
+14 704 309
-14 30 779
+15 752 410
-15 560 663
+16 12 949
-16 698 447
+17 440 981
-17 156 53
+18 68 58
-18 648 332
+19 986 651
-19 292 76
+20 855 177
-20 250 952
+21 845 431
-21 971 364
+22 402 93
-22 226 349
+23 565 907
-23 171 437
+24 502 782
-24 924 791
+25 156 830
-25 107 158
+26 431 410
-26 194 512
+27 9 817
-27 151 770
+28 651 869
-28 687 477
+29 614 585
-29 560 873
+30 913 103
-30 810 228
+31 366 910
-31 190 690
+32 476 308
-32 165 15
+33 926 166
-33 234 961
+34 236 942
-34 874 575
+35 581 364
-35 389 910
+36 960 120
-36 108 136
+37 112 424
-37 460 195
+38 778 589
-38 269 12
+39 469 541
-39 491 35
+40 20 358
-40 569 574
+41 251 169
-41 560 334
+42 674 488
-42 164 983
+43 539 919
-43 527 800
+44 239 574
-44 339 146
+45 670 303
-45 842 331
+46 263 590
-46 532 121
+47 139 760
-47 589 965
+48 143 143
-48 818 166
+49 321 807
-49 120 722
+50 307 239
-50 987 284
+51 879 240
-51 562 773
+52 561 92
-52 116 397
+53 571 676
-53 225 327
+54 223 431
-54 19 379
+55 725 94
-55 979 860
+56 488 126
-56 959 907
+57 693 735
-57 523 95
+58 250 650
-58 536 336
+59 509 804
-59 984 159
+60 337 412
-60 958 143
+61 937 386
-61 593 308
+62 628 809
-62 838 764
+63 442 161
-63 879 913
+64 679 612
-64 917 436
+65 363 832
-65 991 684
+66 637 71
-66 618 339
+67 623 964
-67 895 344
+68 997 911
-68 203 191
+69 997 340
-69 987 374
+70 172 802
-70 899 490
+71 136 489
-71 86 99
+72 204 93
-72 193 511
PRECEDENCE_SECTION
+0 -0
+1 -1
+2 -2
+3 -3
+4 -4
+5 -5
+6 -6
+7 -7
+8 -8
+9 -9
+10 -10
+11 -11
+12 -12
+13 -13
+14 -14
+15 -15
+16 -16
+17 -17
+18 -18
+19 -19
+20 -20
+21 -21
+22 -22
+23 -23
+24 -24
+25 -25
+26 -26
+27 -27
+28 -28
+29 -29
+30 -30
+31 -31
+32 -32
+33 -33
+34 -34
+35 -35
+36 -36
+37 -37
+38 -38
+39 -39
+40 -40
+41 -41
+42 -42
+43 -43
+44 -44
+45 -45
+46 -46
+47 -47
+48 -48
+49 -49
+50 -50
+51 -51
+52 -52
+53 -53
+54 -54
+55 -55
+56 -56
+57 -57
+58 -58
+59 -59
+60 -60
+61 -61
+62 -62
+63 -63
+64 -64
+65 -65
+66 -66
+67 -67
+68 -68
+69 -69
+70 -70
+71 -71
+72 -72
EOF
